(set-option :produce-models true)
(set-logic QF_UF)
(declare-fun p10() Bool)
(declare-fun p28() Bool)
(declare-fun p26() Bool)
(declare-fun p11() Bool)
(declare-fun p6() Bool)
(declare-fun p18() Bool)
(declare-fun p2() Bool)
(declare-fun p17() Bool)
(declare-fun p24() Bool)
(declare-fun p25() Bool)
(declare-fun p1() Bool)
(declare-fun p16() Bool)
(declare-fun p23() Bool)
(declare-fun p9() Bool)
(declare-fun p22() Bool)
(declare-fun p13() Bool)
(declare-fun p0() Bool)
(declare-fun p14() Bool)
(declare-fun p12() Bool)
(declare-fun p7() Bool)
(declare-fun p20() Bool)
(declare-fun p27() Bool)
(declare-fun p19() Bool)
(declare-fun p5() Bool)
(declare-fun p15() Bool)
(declare-fun p4() Bool)
(declare-fun p21() Bool)
(declare-fun p8() Bool)
(declare-fun p29() Bool)
(declare-fun p3() Bool)
(assert
(and (or p10 (not p28) p26) (or p11 (not p6) (not p18)) (or p2 p17 p10) (or (not p24) (not p25) p24) (or p1 (not p16) (not p26)) (or p11 p23 p23) (or p2 (not p9) (not p22)) (or (not p13) (not p0) p14) (or p12 (not p10) p7) (or (not p20) p26 p10) (or (not p27) (not p19) p5) (or p22 p27 p24) (or p18 p24 (not p0)) (or (not p1) p19 p17) (or (not p5) (not p15) p12) (or (not p20) p14 p22) (or p25 p14 (not p18)) (or (not p22) (not p7) (not p25)) (or p26 (not p2) p6) (or p2 p20 p10) (or p26 (not p11) p0) (or (not p4) (not p6) p21) (or p5 (not p9) (not p25)) (or p4 (not p17) p14) (or p17 (not p24) (not p5)) (or p24 p7 p11) (or p19 p16 p19) (or (not p5) (not p11) (not p11)) (or (not p20) p9 p8) (or p27 (not p19) (not p28)) (or (not p2) p12 (not p14)) (or p20 p14 p14) (or (not p5) p21 (not p28)) (or p29 (not p17) (not p23)) (or (not p1) (not p4) (not p10)) (or (not p14) p9 (not p6)) (or (not p9) (not p15) p28) (or p5 p14 p13) (or p29 (not p9) p0) (or (not p4) p26 p14) (or p28 (not p9) p17) (or (not p27) p2 p16) (or (not p26) p18 p29) (or (not p26) p20 p29) (or p22 (not p10) (not p2)) (or (not p22) p0 (not p18)) (or p3 p20 (not p3)) (or p24 p3 (not p21)) (or p2 p16 p19) (or (not p22) p11 p7) (or p9 p24 p4) (or (not p28) p3 (not p8)) (or (not p18) p13 (not p27)) (or p0 (not p8) p1) (or (not p25) p1 (not p15)) (or p26 (not p29) p19) (or p3 p2 p1) (or (not p16) (not p2) p2) (or p24 p28 (not p2)) (or (not p7) (not p21) p13) (or (not p1) (not p10) (not p1)) (or p29 p28 p12) (or (not p5) (not p27) (not p18)) (or (not p22) p12 p13) (or (not p19) p8 p0) (or (not p0) (not p21) p18) (or (not p21) p17 p17) (or (not p29) p15 (not p14)) (or p7 (not p21) p4) (or (not p22) p17 (not p28)) (or (not p28) p6 (not p5)) (or (not p22) (not p11) (not p27)) (or (not p22) (not p3) p4) (or (not p22) p14 (not p27)) (or p3 (not p26) p25) (or p27 (not p5) p1) (or p10 p15 p18) (or (not p0) (not p10) (not p25)) (or (not p28) (not p3) (not p22)) (or p16 (not p7) (not p7)) (or p20 p0 p12) (or (not p0) p25 (not p28)) (or (not p27) p19 p1) (or (not p29) p1 (not p26)) (or (not p13) p14 (not p14)) (or (not p29) (not p2) p16) (or p22 p18 (not p28)) (or (not p16) p3 (not p0)) (or p27 (not p18) (not p13)) (or (not p20) (not p7) p21) (or p19 p13 (not p3)) (or (not p22) (not p3) (not p5)) (or (not p9) (not p12) (not p21)) (or p25 (not p2) p6) (or p15 (not p13) p3) (or p0 p2 p10) (or (not p15) p24 (not p15)) (or p14 p25 p7) (or p14 (not p6) (not p16)) (or p22 p0 (not p3)) (or p25 (not p2) p15) (or (not p0) p1 (not p5)) (or p22 p12 (not p12)) (or (not p20) p27 p19) (or p20 (not p13) (not p28)) (or (not p5) (not p9) p6) (or p6 p1 (not p14)) (or (not p16) p24 p0) (or (not p25) p1 (not p7)) (or (not p9) (not p23) p15) (or (not p21) p23 p9) (or (not p1) p6 (not p12)) (or (not p7) p1 (not p12)) (or p14 p18 p21) (or p19 p26 (not p16)) (or (not p16) (not p23) (not p9)) (or (not p21) (not p15) p25) (or (not p27) p5 p13) (or (not p10) p22 p2) (or (not p27) p14 (not p0)) (or p27 p27 p23) (or (not p26) (not p15) (not p28)) (or (not p14) p17 p10) (or (not p22) p14 (not p5)) (or (not p10) p2 (not p16)) (or p9 (not p15) (not p28)) (or (not p19) (not p28) (not p2)) (or (not p14) p9 (not p7)))
)
(check-sat)
(get-model)
